0000000000000000
0000000000000000
0001110000000000
0000000011000000
0000000000100000
0000000000010000
0000000000000000
0000000000000000
0000000000001000
0000001000001000
0000001000001000
0000000000001000
0000010000000000
0000010000000000
0000000000010000
0000000000000000
